NAME : X-n916-k207
COMMENT : "Generated by Uchoa, Pecin, Pessoa, Poggi, Subramanian, and Vidal (2013)"
TYPE : CVRP
DIMENSION : 916
EDGE_WEIGHT_TYPE : EUC_2D
CAPACITY : 33
NODE_COORD_SECTION
1 0 0
2 471 44
3 63 475
4 766 504
5 895 595
6 816 377
7 462 590
8 997 596
9 775 993
10 16 97
11 839 348
12 558 896
13 423 912
14 169 411
15 75 602
16 402 52
17 388 208
18 202 39
19 510 841
20 555 484
21 920 633
22 369 718
23 432 696
24 624 872
25 472 323
26 753 701
27 584 440
28 292 665
29 202 310
30 764 255
31 662 486
32 822 575
33 469 13
34 640 165
35 814 886
36 554 82
37 336 745
38 950 229
39 142 835
40 407 932
41 69 205
42 86 764
43 202 165
44 376 632
45 639 987
46 775 98
47 503 855
48 38 960
49 215 73
50 566 78
51 4 517
52 44 457
53 676 337
54 338 568
55 623 911
56 626 931
57 97 43
58 799 942
59 725 430
60 93 953
61 264 347
62 986 595
63 631 614
64 331 362
65 158 793
66 760 436
67 115 641
68 307 764
69 469 817
70 315 388
71 906 830
72 564 25
73 88 246
74 671 892
75 181 139
76 723 784
77 609 798
78 174 403
79 76 671
80 984 939
81 830 579
82 3 893
83 176 164
84 625 158
85 249 590
86 663 347
87 21 500
88 501 372
89 572 218
90 483 270
91 604 201
92 548 281
93 205 745
94 125 178
95 870 931
96 276 846
97 759 839
98 79 105
99 218 992
100 277 797
101 545 62
102 161 102
103 1 827
104 719 128
105 80 366
106 16 732
107 24 521
108 848 600
109 585 594
110 618 577
111 44 300
112 489 239
113 479 978
114 768 731
115 274 30
116 546 837
117 890 640
118 594 308
119 878 716
120 498 448
121 145 96
122 54 935
123 473 5
124 906 899
125 277 752
126 435 254
127 630 686
128 905 275
129 521 401
130 850 425
131 374 186
132 712 433
133 814 730
134 740 622
135 681 74
136 120 490
137 297 816
138 376 534
139 982 560
140 1 332
141 815 625
142 356 868
143 659 994
144 804 110
145 415 517
146 106 844
147 549 366
148 57 742
149 848 739
150 381 700
151 442 808
152 867 408
153 67 930
154 763 186
155 581 91
156 416 56
157 729 620
158 163 73
159 160 129
160 468 902
161 694 730
162 319 644
163 831 476
164 863 921
165 524 71
166 299 197
167 193 823
168 18 360
169 987 845
170 998 548
171 302 506
172 432 229
173 550 142
174 637 527
175 168 0
176 178 804
177 888 448
178 270 481
179 250 421
180 410 125
181 373 134
182 275 772
183 965 25
184 858 502
185 587 967
186 860 275
187 178 710
188 331 4
189 811 598
190 560 886
191 712 512
192 216 974
193 528 75
194 740 12
195 840 109
196 980 512
197 928 334
198 90 78
199 788 322
200 665 990
201 400 702
202 131 24
203 238 610
204 392 541
205 40 394
206 713 806
207 823 571
208 863 568
209 145 20
210 509 893
211 629 447
212 854 236
213 717 78
214 525 774
215 695 620
216 721 979
217 957 457
218 594 451
219 514 110
220 899 994
221 772 937
222 877 942
223 533 82
224 399 742
225 273 688
226 360 780
227 650 339
228 312 455
229 272 771
230 362 515
231 716 823
232 307 627
233 787 639
234 28 212
235 38 119
236 130 518
237 535 632
238 832 952
239 874 955
240 106 653
241 440 485
242 73 329
243 934 692
244 638 325
245 126 820
246 382 958
247 884 840
248 706 90
249 424 652
250 216 964
251 841 543
252 370 271
253 863 886
254 361 490
255 875 91
256 266 457
257 179 817
258 430 197
259 512 412
260 111 1
261 811 631
262 366 758
263 227 575
264 197 524
265 398 905
266 939 361
267 953 287
268 897 410
269 285 104
270 245 215
271 569 401
272 159 310
273 20 90
274 212 39
275 415 407
276 13 641
277 855 610
278 95 571
279 780 936
280 63 84
281 240 801
282 977 62
283 405 258
284 995 89
285 334 695
286 265 783
287 988 790
288 68 368
289 497 712
290 201 513
291 676 581
292 625 400
293 791 162
294 351 55
295 572 827
296 584 930
297 482 749
298 110 723
299 230 362
300 942 467
301 540 63
302 202 848
303 161 162
304 272 788
305 137 87
306 177 274
307 324 842
308 229 434
309 149 697
310 916 866
311 634 157
312 42 213
313 655 154
314 123 1000
315 460 506
316 21 698
317 435 615
318 838 67
319 120 425
320 54 726
321 475 624
322 923 980
323 391 94
324 105 901
325 463 618
326 568 659
327 999 831
328 719 93
329 290 423
330 796 547
331 123 595
332 515 939
333 550 757
334 954 98
335 898 486
336 695 337
337 40 727
338 217 284
339 910 245
340 536 956
341 262 332
342 91 91
343 697 755
344 894 726
345 919 962
346 909 22
347 253 535
348 703 346
349 416 895
350 330 596
351 524 250
352 475 780
353 365 803
354 844 845
355 909 202
356 802 755
357 77 246
358 266 819
359 759 835
360 850 267
361 71 176
362 244 82
363 881 234
364 867 75
365 564 436
366 749 216
367 30 624
368 677 208
369 980 257
370 582 317
371 421 870
372 183 454
373 442 766
374 875 497
375 217 979
376 867 873
377 280 473
378 582 382
379 35 597
380 287 284
381 527 786
382 991 617
383 448 513
384 581 780
385 415 498
386 215 359
387 478 154
388 964 211
389 886 296
390 696 784
391 102 90
392 227 699
393 76 258
394 705 580
395 752 531
396 246 128
397 834 350
398 838 453
399 809 825
400 468 650
401 204 930
402 523 626
403 110 964
404 422 180
405 940 246
406 513 333
407 446 78
408 212 903
409 992 939
410 392 329
411 58 941
412 24 763
413 17 536
414 70 381
415 142 464
416 621 976
417 878 960
418 286 774
419 349 202
420 841 520
421 134 20
422 107 804
423 278 847
424 103 639
425 555 920
426 427 289
427 987 735
428 905 345
429 608 750
430 471 58
431 482 339
432 319 913
433 966 994
434 288 458
435 225 777
436 501 384
437 3 25
438 259 851
439 632 304
440 180 66
441 300 608
442 591 113
443 569 817
444 165 31
445 137 397
446 820 139
447 858 354
448 846 618
449 0 438
450 308 337
451 772 594
452 684 931
453 76 667
454 750 130
455 538 354
456 725 339
457 758 410
458 664 460
459 837 95
460 90 978
461 137 885
462 898 281
463 301 417
464 480 247
465 441 215
466 749 43
467 119 871
468 77 906
469 30 919
470 481 281
471 680 2
472 262 513
473 892 100
474 291 346
475 297 568
476 248 393
477 41 933
478 904 115
479 32 959
480 535 246
481 383 373
482 790 155
483 351 192
484 974 278
485 853 66
486 402 223
487 946 112
488 282 298
489 125 815
490 542 231
491 414 364
492 126 877
493 867 55
494 356 901
495 432 398
496 943 107
497 50 932
498 152 996
499 456 587
500 249 311
501 993 242
502 499 264
503 801 81
504 740 343
505 947 194
506 413 424
507 885 23
508 22 856
509 120 843
510 878 250
511 285 767
512 62 901
513 923 284
514 967 327
515 647 167
516 284 481
517 474 146
518 879 57
519 69 955
520 226 446
521 681 214
522 10 764
523 303 406
524 306 364
525 443 329
526 256 544
527 164 890
528 902 315
529 99 834
530 246 156
531 244 466
532 744 203
533 795 267
534 484 108
535 152 734
536 182 883
537 862 64
538 403 167
539 80 925
540 918 400
541 888 170
542 122 356
543 970 207
544 838 63
545 772 29
546 481 228
547 132 920
548 159 405
549 73 851
550 142 807
551 631 386
552 927 39
553 220 898
554 374 989
555 269 417
556 568 286
557 289 426
558 936 279
559 869 414
560 197 686
561 187 768
562 369 80
563 166 764
564 908 249
565 224 440
566 337 486
567 220 794
568 74 791
569 53 1000
570 787 73
571 787 362
572 750 177
573 254 284
574 547 281
575 172 865
576 24 961
577 277 387
578 887 262
579 687 320
580 156 826
581 310 852
582 239 787
583 63 961
584 414 304
585 385 451
586 297 604
587 122 849
588 500 280
589 308 485
590 216 326
591 788 310
592 120 859
593 952 262
594 50 951
595 51 885
596 521 285
597 566 179
598 51 802
599 234 720
600 297 461
601 102 907
602 602 414
603 568 274
604 977 339
605 363 614
606 192 888
607 262 418
608 877 28
609 266 562
610 283 404
611 21 904
612 978 188
613 464 235
614 125 935
615 436 737
616 85 979
617 827 264
618 127 983
619 498 199
620 883 290
621 553 441
622 135 897
623 118 745
624 782 44
625 863 44
626 399 329
627 494 238
628 348 368
629 871 87
630 281 341
631 437 236
632 231 337
633 479 274
634 589 30
635 486 301
636 367 425
637 261 354
638 890 143
639 494 186
640 417 390
641 169 825
642 294 291
643 934 247
644 199 952
645 491 210
646 547 203
647 266 398
648 879 167
649 810 114
650 165 950
651 366 344
652 138 699
653 121 678
654 458 199
655 265 932
656 150 301
657 306 272
658 141 910
659 520 532
660 48 853
661 941 342
662 185 796
663 184 339
664 961 294
665 925 179
666 113 864
667 254 377
668 785 101
669 944 220
670 392 85
671 223 275
672 72 966
673 451 269
674 272 419
675 213 987
676 542 240
677 435 278
678 590 292
679 816 399
680 10 893
681 912 350
682 932 281
683 431 819
684 102 918
685 915 417
686 248 506
687 507 957
688 610 313
689 104 710
690 445 305
691 899 164
692 91 921
693 968 286
694 530 28
695 772 457
696 520 202
697 821 71
698 408 363
699 568 311
700 420 267
701 331 433
702 897 47
703 721 109
704 783 26
705 843 135
706 649 30
707 792 295
708 817 187
709 310 398
710 108 980
711 113 943
712 627 268
713 843 9
714 827 183
715 469 247
716 293 476
717 48 802
718 299 571
719 177 983
720 247 818
721 485 205
722 926 105
723 198 537
724 193 518
725 941 160
726 319 377
727 212 832
728 263 293
729 506 64
730 124 894
731 277 359
732 325 320
733 720 133
734 82 861
735 100 923
736 585 222
737 496 113
738 820 51
739 131 436
740 280 364
741 175 812
742 921 343
743 678 290
744 960 590
745 927 210
746 106 895
747 287 535
748 494 399
749 418 389
750 563 224
751 414 374
752 227 316
753 234 332
754 858 251
755 345 175
756 129 946
757 908 99
758 401 449
759 125 846
760 226 934
761 915 307
762 420 185
763 153 899
764 99 895
765 858 255
766 904 280
767 836 295
768 954 91
769 307 462
770 63 942
771 234 500
772 990 351
773 64 844
774 16 979
775 746 95
776 110 822
777 874 368
778 282 437
779 735 65
780 343 882
781 273 905
782 16 952
783 698 290
784 797 162
785 836 112
786 519 268
787 171 891
788 392 244
789 889 215
790 822 706
791 567 222
792 569 663
793 254 984
794 939 225
795 953 324
796 202 931
797 882 219
798 252 380
799 64 517
800 875 542
801 786 222
802 908 103
803 915 177
804 321 438
805 908 150
806 205 294
807 408 460
808 189 798
809 93 968
810 889 238
811 296 871
812 467 189
813 497 523
814 329 391
815 80 869
816 868 149
817 548 355
818 630 125
819 322 213
820 874 134
821 897 281
822 154 894
823 41 883
824 474 446
825 221 764
826 917 309
827 390 957
828 435 336
829 862 457
830 144 827
831 131 239
832 396 258
833 143 938
834 817 68
835 868 115
836 155 951
837 861 244
838 484 279
839 252 836
840 413 905
841 141 914
842 124 934
843 121 908
844 520 191
845 223 490
846 775 116
847 932 226
848 807 379
849 254 997
850 332 319
851 808 87
852 956 173
853 973 410
854 549 147
855 517 226
856 151 969
857 284 419
858 851 84
859 383 311
860 456 720
861 816 63
862 336 428
863 305 293
864 944 359
865 185 820
866 18 846
867 861 274
868 50 970
869 869 277
870 872 242
871 370 207
872 46 964
873 541 303
874 442 386
875 835 160
876 206 314
877 361 437
878 877 322
879 504 198
880 533 279
881 307 397
882 205 953
883 78 882
884 390 508
885 150 966
886 983 411
887 561 527
888 709 161
889 71 969
890 47 963
891 786 186
892 960 209
893 698 347
894 923 254
895 999 380
896 408 243
897 360 419
898 71 883
899 677 170
900 510 245
901 973 291
902 39 922
903 156 902
904 37 1000
905 966 301
906 344 450
907 112 334
908 133 830
909 107 466
910 798 121
911 224 769
912 503 237
913 294 796
914 521 264
915 113 820
916 996 220
PICKUP_AND_DELIVERY_SECTION
1 0 0 1000000000 0 0 0
2 0 0 1000000000 0 0 8
3 0 0 1000000000 0 0 6
4 0 0 1000000000 0 0 7
5 0 0 1000000000 0 0 6
6 0 0 1000000000 0 0 10
7 0 0 1000000000 0 0 10
8 0 0 1000000000 0 0 5
9 0 0 1000000000 0 0 7
10 0 0 1000000000 0 0 8
11 0 0 1000000000 0 8 0
12 0 0 1000000000 0 0 6
13 0 0 1000000000 0 0 6
14 0 0 1000000000 0 0 6
15 0 0 1000000000 0 0 6
16 0 0 1000000000 0 0 5
17 0 0 1000000000 0 0 8
18 0 0 1000000000 0 0 6
19 0 0 1000000000 0 0 10
20 0 0 1000000000 0 0 9
21 0 0 1000000000 0 8 0
22 0 0 1000000000 0 0 9
23 0 0 1000000000 0 0 6
24 0 0 1000000000 0 0 10
25 0 0 1000000000 0 0 10
26 0 0 1000000000 0 0 6
27 0 0 1000000000 0 0 6
28 0 0 1000000000 0 0 6
29 0 0 1000000000 0 0 9
30 0 0 1000000000 0 0 9
31 0 0 1000000000 0 10 0
32 0 0 1000000000 0 0 9
33 0 0 1000000000 0 0 6
34 0 0 1000000000 0 0 5
35 0 0 1000000000 0 0 5
36 0 0 1000000000 0 0 6
37 0 0 1000000000 0 0 10
38 0 0 1000000000 0 0 8
39 0 0 1000000000 0 0 5
40 0 0 1000000000 0 0 6
41 0 0 1000000000 0 9 0
42 0 0 1000000000 0 0 8
43 0 0 1000000000 0 0 7
44 0 0 1000000000 0 0 8
45 0 0 1000000000 0 0 6
46 0 0 1000000000 0 0 7
47 0 0 1000000000 0 0 6
48 0 0 1000000000 0 0 5
49 0 0 1000000000 0 0 7
50 0 0 1000000000 0 0 9
51 0 0 1000000000 0 8 0
52 0 0 1000000000 0 0 8
53 0 0 1000000000 0 0 10
54 0 0 1000000000 0 0 8
55 0 0 1000000000 0 0 7
56 0 0 1000000000 0 0 10
57 0 0 1000000000 0 0 6
58 0 0 1000000000 0 0 5
59 0 0 1000000000 0 0 6
60 0 0 1000000000 0 0 10
61 0 0 1000000000 0 7 0
62 0 0 1000000000 0 0 6
63 0 0 1000000000 0 0 7
64 0 0 1000000000 0 0 8
65 0 0 1000000000 0 0 9
66 0 0 1000000000 0 0 9
67 0 0 1000000000 0 0 9
68 0 0 1000000000 0 0 6
69 0 0 1000000000 0 0 10
70 0 0 1000000000 0 0 7
71 0 0 1000000000 0 9 0
72 0 0 1000000000 0 0 5
73 0 0 1000000000 0 0 7
74 0 0 1000000000 0 0 9
75 0 0 1000000000 0 0 6
76 0 0 1000000000 0 0 5
77 0 0 1000000000 0 0 9
78 0 0 1000000000 0 0 6
79 0 0 1000000000 0 0 5
80 0 0 1000000000 0 0 5
81 0 0 1000000000 0 5 0
82 0 0 1000000000 0 0 7
83 0 0 1000000000 0 0 10
84 0 0 1000000000 0 0 10
85 0 0 1000000000 0 0 6
86 0 0 1000000000 0 0 9
87 0 0 1000000000 0 0 7
88 0 0 1000000000 0 0 10
89 0 0 1000000000 0 0 10
90 0 0 1000000000 0 0 7
91 0 0 1000000000 0 10 0
92 0 0 1000000000 0 0 7
93 0 0 1000000000 0 0 9
94 0 0 1000000000 0 0 5
95 0 0 1000000000 0 0 9
96 0 0 1000000000 0 0 8
97 0 0 1000000000 0 0 7
98 0 0 1000000000 0 0 8
99 0 0 1000000000 0 0 10
100 0 0 1000000000 0 0 10
101 0 0 1000000000 0 7 0
102 0 0 1000000000 0 0 10
103 0 0 1000000000 0 0 6
104 0 0 1000000000 0 0 6
105 0 0 1000000000 0 0 5
106 0 0 1000000000 0 0 10
107 0 0 1000000000 0 0 10
108 0 0 1000000000 0 0 6
109 0 0 1000000000 0 0 5
110 0 0 1000000000 0 0 7
111 0 0 1000000000 0 7 0
112 0 0 1000000000 0 0 5
113 0 0 1000000000 0 0 5
114 0 0 1000000000 0 0 7
115 0 0 1000000000 0 0 9
116 0 0 1000000000 0 0 9
117 0 0 1000000000 0 0 8
118 0 0 1000000000 0 0 5
119 0 0 1000000000 0 0 7
120 0 0 1000000000 0 0 9
121 0 0 1000000000 0 7 0
122 0 0 1000000000 0 0 7
123 0 0 1000000000 0 0 9
124 0 0 1000000000 0 0 5
125 0 0 1000000000 0 0 9
126 0 0 1000000000 0 0 5
127 0 0 1000000000 0 0 6
128 0 0 1000000000 0 0 6
129 0 0 1000000000 0 0 8
130 0 0 1000000000 0 0 10
131 0 0 1000000000 0 7 0
132 0 0 1000000000 0 0 8
133 0 0 1000000000 0 0 9
134 0 0 1000000000 0 0 10
135 0 0 1000000000 0 0 6
136 0 0 1000000000 0 0 8
137 0 0 1000000000 0 0 7
138 0 0 1000000000 0 0 6
139 0 0 1000000000 0 0 7
140 0 0 1000000000 0 0 5
141 0 0 1000000000 0 5 0
142 0 0 1000000000 0 0 6
143 0 0 1000000000 0 0 8
144 0 0 1000000000 0 0 10
145 0 0 1000000000 0 0 10
146 0 0 1000000000 0 0 8
147 0 0 1000000000 0 0 10
148 0 0 1000000000 0 0 9
149 0 0 1000000000 0 0 6
150 0 0 1000000000 0 0 10
151 0 0 1000000000 0 5 0
152 0 0 1000000000 0 0 5
153 0 0 1000000000 0 0 7
154 0 0 1000000000 0 0 5
155 0 0 1000000000 0 0 10
156 0 0 1000000000 0 0 6
157 0 0 1000000000 0 0 8
158 0 0 1000000000 0 0 8
159 0 0 1000000000 0 0 5
160 0 0 1000000000 0 0 9
161 0 0 1000000000 0 6 0
162 0 0 1000000000 0 0 7
163 0 0 1000000000 0 0 7
164 0 0 1000000000 0 0 6
165 0 0 1000000000 0 0 9
166 0 0 1000000000 0 0 8
167 0 0 1000000000 0 0 10
168 0 0 1000000000 0 0 10
169 0 0 1000000000 0 0 6
170 0 0 1000000000 0 0 9
171 0 0 1000000000 0 9 0
172 0 0 1000000000 0 0 5
173 0 0 1000000000 0 0 5
174 0 0 1000000000 0 0 8
175 0 0 1000000000 0 0 10
176 0 0 1000000000 0 0 6
177 0 0 1000000000 0 0 8
178 0 0 1000000000 0 0 5
179 0 0 1000000000 0 0 7
180 0 0 1000000000 0 0 5
181 0 0 1000000000 0 5 0
182 0 0 1000000000 0 0 10
183 0 0 1000000000 0 0 9
184 0 0 1000000000 0 0 10
185 0 0 1000000000 0 0 8
186 0 0 1000000000 0 0 7
187 0 0 1000000000 0 0 6
188 0 0 1000000000 0 0 5
189 0 0 1000000000 0 0 8
190 0 0 1000000000 0 0 6
191 0 0 1000000000 0 5 0
192 0 0 1000000000 0 0 9
193 0 0 1000000000 0 0 9
194 0 0 1000000000 0 0 5
195 0 0 1000000000 0 0 9
196 0 0 1000000000 0 0 7
197 0 0 1000000000 0 0 8
198 0 0 1000000000 0 0 8
199 0 0 1000000000 0 0 9
200 0 0 1000000000 0 0 10
201 0 0 1000000000 0 10 0
202 0 0 1000000000 0 0 7
203 0 0 1000000000 0 0 8
204 0 0 1000000000 0 0 7
205 0 0 1000000000 0 0 6
206 0 0 1000000000 0 0 9
207 0 0 1000000000 0 0 10
208 0 0 1000000000 0 0 10
209 0 0 1000000000 0 0 7
210 0 0 1000000000 0 0 10
211 0 0 1000000000 0 5 0
212 0 0 1000000000 0 0 10
213 0 0 1000000000 0 0 8
214 0 0 1000000000 0 0 8
215 0 0 1000000000 0 0 8
216 0 0 1000000000 0 0 9
217 0 0 1000000000 0 0 8
218 0 0 1000000000 0 0 8
219 0 0 1000000000 0 0 8
220 0 0 1000000000 0 0 10
221 0 0 1000000000 0 8 0
222 0 0 1000000000 0 0 7
223 0 0 1000000000 0 0 6
224 0 0 1000000000 0 0 9
225 0 0 1000000000 0 0 10
226 0 0 1000000000 0 0 7
227 0 0 1000000000 0 0 5
228 0 0 1000000000 0 0 6
229 0 0 1000000000 0 0 9
230 0 0 1000000000 0 0 8
231 0 0 1000000000 0 6 0
232 0 0 1000000000 0 0 8
233 0 0 1000000000 0 0 7
234 0 0 1000000000 0 0 7
235 0 0 1000000000 0 0 5
236 0 0 1000000000 0 0 7
237 0 0 1000000000 0 0 8
238 0 0 1000000000 0 0 6
239 0 0 1000000000 0 0 5
240 0 0 1000000000 0 0 8
241 0 0 1000000000 0 6 0
242 0 0 1000000000 0 0 6
243 0 0 1000000000 0 0 10
244 0 0 1000000000 0 0 8
245 0 0 1000000000 0 0 9
246 0 0 1000000000 0 0 6
247 0 0 1000000000 0 0 7
248 0 0 1000000000 0 0 7
249 0 0 1000000000 0 0 5
250 0 0 1000000000 0 0 7
251 0 0 1000000000 0 10 0
252 0 0 1000000000 0 0 6
253 0 0 1000000000 0 0 5
254 0 0 1000000000 0 0 10
255 0 0 1000000000 0 0 6
256 0 0 1000000000 0 0 10
257 0 0 1000000000 0 0 7
258 0 0 1000000000 0 0 10
259 0 0 1000000000 0 0 9
260 0 0 1000000000 0 0 5
261 0 0 1000000000 0 5 0
262 0 0 1000000000 0 0 5
263 0 0 1000000000 0 0 8
264 0 0 1000000000 0 0 8
265 0 0 1000000000 0 0 5
266 0 0 1000000000 0 0 8
267 0 0 1000000000 0 0 10
268 0 0 1000000000 0 0 6
269 0 0 1000000000 0 0 7
270 0 0 1000000000 0 0 9
271 0 0 1000000000 0 8 0
272 0 0 1000000000 0 0 6
273 0 0 1000000000 0 0 9
274 0 0 1000000000 0 0 10
275 0 0 1000000000 0 0 10
276 0 0 1000000000 0 0 6
277 0 0 1000000000 0 0 10
278 0 0 1000000000 0 0 9
279 0 0 1000000000 0 0 7
280 0 0 1000000000 0 0 10
281 0 0 1000000000 0 9 0
282 0 0 1000000000 0 0 5
283 0 0 1000000000 0 0 6
284 0 0 1000000000 0 0 10
285 0 0 1000000000 0 0 5
286 0 0 1000000000 0 0 5
287 0 0 1000000000 0 0 7
288 0 0 1000000000 0 0 9
289 0 0 1000000000 0 0 9
290 0 0 1000000000 0 0 10
291 0 0 1000000000 0 6 0
292 0 0 1000000000 0 0 5
293 0 0 1000000000 0 0 10
294 0 0 1000000000 0 0 7
295 0 0 1000000000 0 0 7
296 0 0 1000000000 0 0 8
297 0 0 1000000000 0 0 10
298 0 0 1000000000 0 0 5
299 0 0 1000000000 0 0 5
300 0 0 1000000000 0 0 7
301 0 0 1000000000 0 10 0
302 0 0 1000000000 0 0 8
303 0 0 1000000000 0 0 10
304 0 0 1000000000 0 0 7
305 0 0 1000000000 0 0 8
306 0 0 1000000000 0 0 10
307 0 0 1000000000 0 0 9
308 0 0 1000000000 0 0 8
309 0 0 1000000000 0 0 10
310 0 0 1000000000 0 0 7
311 0 0 1000000000 0 10 0
312 0 0 1000000000 0 0 10
313 0 0 1000000000 0 0 6
314 0 0 1000000000 0 0 7
315 0 0 1000000000 0 0 6
316 0 0 1000000000 0 0 8
317 0 0 1000000000 0 0 9
318 0 0 1000000000 0 0 7
319 0 0 1000000000 0 0 6
320 0 0 1000000000 0 0 5
321 0 0 1000000000 0 9 0
322 0 0 1000000000 0 0 6
323 0 0 1000000000 0 0 8
324 0 0 1000000000 0 0 9
325 0 0 1000000000 0 0 6
326 0 0 1000000000 0 0 6
327 0 0 1000000000 0 0 5
328 0 0 1000000000 0 0 7
329 0 0 1000000000 0 0 6
330 0 0 1000000000 0 0 10
331 0 0 1000000000 0 7 0
332 0 0 1000000000 0 0 5
333 0 0 1000000000 0 0 5
334 0 0 1000000000 0 0 8
335 0 0 1000000000 0 0 8
336 0 0 1000000000 0 0 6
337 0 0 1000000000 0 0 6
338 0 0 1000000000 0 0 7
339 0 0 1000000000 0 0 7
340 0 0 1000000000 0 0 7
341 0 0 1000000000 0 5 0
342 0 0 1000000000 0 0 9
343 0 0 1000000000 0 0 7
344 0 0 1000000000 0 0 6
345 0 0 1000000000 0 0 5
346 0 0 1000000000 0 0 9
347 0 0 1000000000 0 0 5
348 0 0 1000000000 0 0 6
349 0 0 1000000000 0 0 7
350 0 0 1000000000 0 0 8
351 0 0 1000000000 0 10 0
352 0 0 1000000000 0 0 9
353 0 0 1000000000 0 0 5
354 0 0 1000000000 0 0 6
355 0 0 1000000000 0 0 9
356 0 0 1000000000 0 0 6
357 0 0 1000000000 0 0 7
358 0 0 1000000000 0 0 5
359 0 0 1000000000 0 0 9
360 0 0 1000000000 0 0 10
361 0 0 1000000000 0 10 0
362 0 0 1000000000 0 0 6
363 0 0 1000000000 0 0 5
364 0 0 1000000000 0 0 8
365 0 0 1000000000 0 0 6
366 0 0 1000000000 0 0 10
367 0 0 1000000000 0 0 10
368 0 0 1000000000 0 0 5
369 0 0 1000000000 0 0 7
370 0 0 1000000000 0 0 8
371 0 0 1000000000 0 10 0
372 0 0 1000000000 0 0 7
373 0 0 1000000000 0 0 9
374 0 0 1000000000 0 0 7
375 0 0 1000000000 0 0 6
376 0 0 1000000000 0 0 7
377 0 0 1000000000 0 0 6
378 0 0 1000000000 0 0 10
379 0 0 1000000000 0 0 7
380 0 0 1000000000 0 0 7
381 0 0 1000000000 0 9 0
382 0 0 1000000000 0 0 10
383 0 0 1000000000 0 0 5
384 0 0 1000000000 0 0 8
385 0 0 1000000000 0 0 6
386 0 0 1000000000 0 0 8
387 0 0 1000000000 0 0 9
388 0 0 1000000000 0 0 10
389 0 0 1000000000 0 0 7
390 0 0 1000000000 0 0 7
391 0 0 1000000000 0 6 0
392 0 0 1000000000 0 0 10
393 0 0 1000000000 0 0 8
394 0 0 1000000000 0 0 10
395 0 0 1000000000 0 0 9
396 0 0 1000000000 0 0 5
397 0 0 1000000000 0 0 7
398 0 0 1000000000 0 0 7
399 0 0 1000000000 0 0 7
400 0 0 1000000000 0 0 5
401 0 0 1000000000 0 10 0
402 0 0 1000000000 0 0 5
403 0 0 1000000000 0 0 10
404 0 0 1000000000 0 0 7
405 0 0 1000000000 0 0 9
406 0 0 1000000000 0 0 10
407 0 0 1000000000 0 0 5
408 0 0 1000000000 0 0 8
409 0 0 1000000000 0 0 5
410 0 0 1000000000 0 0 5
411 0 0 1000000000 0 7 0
412 0 0 1000000000 0 0 7
413 0 0 1000000000 0 0 7
414 0 0 1000000000 0 0 5
415 0 0 1000000000 0 0 10
416 0 0 1000000000 0 0 7
417 0 0 1000000000 0 0 10
418 0 0 1000000000 0 0 8
419 0 0 1000000000 0 0 6
420 0 0 1000000000 0 0 10
421 0 0 1000000000 0 7 0
422 0 0 1000000000 0 0 10
423 0 0 1000000000 0 0 8
424 0 0 1000000000 0 0 5
425 0 0 1000000000 0 0 9
426 0 0 1000000000 0 0 10
427 0 0 1000000000 0 0 6
428 0 0 1000000000 0 0 10
429 0 0 1000000000 0 0 9
430 0 0 1000000000 0 0 8
431 0 0 1000000000 0 6 0
432 0 0 1000000000 0 0 9
433 0 0 1000000000 0 0 7
434 0 0 1000000000 0 0 6
435 0 0 1000000000 0 0 8
436 0 0 1000000000 0 0 6
437 0 0 1000000000 0 0 7
438 0 0 1000000000 0 0 9
439 0 0 1000000000 0 0 10
440 0 0 1000000000 0 0 6
441 0 0 1000000000 0 6 0
442 0 0 1000000000 0 0 5
443 0 0 1000000000 0 0 9
444 0 0 1000000000 0 0 6
445 0 0 1000000000 0 0 7
446 0 0 1000000000 0 0 9
447 0 0 1000000000 0 0 10
448 0 0 1000000000 0 0 9
449 0 0 1000000000 0 0 10
450 0 0 1000000000 0 0 6
451 0 0 1000000000 0 7 0
452 0 0 1000000000 0 0 8
453 0 0 1000000000 0 0 9
454 0 0 1000000000 0 0 5
455 0 0 1000000000 0 0 7
456 0 0 1000000000 0 0 6
457 0 0 1000000000 0 0 6
458 0 0 1000000000 0 0 7
459 0 0 1000000000 0 0 9
460 0 0 1000000000 0 0 7
461 0 0 1000000000 0 8 0
462 0 0 1000000000 0 0 9
463 0 0 1000000000 0 0 5
464 0 0 1000000000 0 0 5
465 0 0 1000000000 0 0 6
466 0 0 1000000000 0 0 10
467 0 0 1000000000 0 0 9
468 0 0 1000000000 0 0 9
469 0 0 1000000000 0 0 10
470 0 0 1000000000 0 0 8
471 0 0 1000000000 0 8 0
472 0 0 1000000000 0 0 6
473 0 0 1000000000 0 0 9
474 0 0 1000000000 0 0 5
475 0 0 1000000000 0 0 6
476 0 0 1000000000 0 0 7
477 0 0 1000000000 0 0 9
478 0 0 1000000000 0 0 6
479 0 0 1000000000 0 0 8
480 0 0 1000000000 0 0 8
481 0 0 1000000000 0 9 0
482 0 0 1000000000 0 0 6
483 0 0 1000000000 0 0 10
484 0 0 1000000000 0 0 6
485 0 0 1000000000 0 0 7
486 0 0 1000000000 0 0 6
487 0 0 1000000000 0 0 5
488 0 0 1000000000 0 0 5
489 0 0 1000000000 0 0 9
490 0 0 1000000000 0 0 7
491 0 0 1000000000 0 5 0
492 0 0 1000000000 0 0 9
493 0 0 1000000000 0 0 10
494 0 0 1000000000 0 0 8
495 0 0 1000000000 0 0 6
496 0 0 1000000000 0 0 9
497 0 0 1000000000 0 0 7
498 0 0 1000000000 0 0 6
499 0 0 1000000000 0 0 7
500 0 0 1000000000 0 0 6
501 0 0 1000000000 0 6 0
502 0 0 1000000000 0 0 8
503 0 0 1000000000 0 0 5
504 0 0 1000000000 0 0 8
505 0 0 1000000000 0 0 9
506 0 0 1000000000 0 0 5
507 0 0 1000000000 0 0 6
508 0 0 1000000000 0 0 5
509 0 0 1000000000 0 0 9
510 0 0 1000000000 0 0 5
511 0 0 1000000000 0 6 0
512 0 0 1000000000 0 0 9
513 0 0 1000000000 0 0 5
514 0 0 1000000000 0 0 5
515 0 0 1000000000 0 0 9
516 0 0 1000000000 0 0 5
517 0 0 1000000000 0 0 8
518 0 0 1000000000 0 0 6
519 0 0 1000000000 0 0 10
520 0 0 1000000000 0 0 8
521 0 0 1000000000 0 9 0
522 0 0 1000000000 0 0 10
523 0 0 1000000000 0 0 5
524 0 0 1000000000 0 0 6
525 0 0 1000000000 0 0 10
526 0 0 1000000000 0 0 8
527 0 0 1000000000 0 0 5
528 0 0 1000000000 0 0 7
529 0 0 1000000000 0 0 7
530 0 0 1000000000 0 0 6
531 0 0 1000000000 0 6 0
532 0 0 1000000000 0 0 6
533 0 0 1000000000 0 0 9
534 0 0 1000000000 0 0 9
535 0 0 1000000000 0 0 6
536 0 0 1000000000 0 0 9
537 0 0 1000000000 0 0 7
538 0 0 1000000000 0 0 5
539 0 0 1000000000 0 0 6
540 0 0 1000000000 0 0 8
541 0 0 1000000000 0 8 0
542 0 0 1000000000 0 0 10
543 0 0 1000000000 0 0 7
544 0 0 1000000000 0 0 10
545 0 0 1000000000 0 0 9
546 0 0 1000000000 0 0 8
547 0 0 1000000000 0 0 9
548 0 0 1000000000 0 0 8
549 0 0 1000000000 0 0 7
550 0 0 1000000000 0 0 6
551 0 0 1000000000 0 8 0
552 0 0 1000000000 0 0 8
553 0 0 1000000000 0 0 10
554 0 0 1000000000 0 0 10
555 0 0 1000000000 0 0 8
556 0 0 1000000000 0 0 6
557 0 0 1000000000 0 0 9
558 0 0 1000000000 0 0 7
559 0 0 1000000000 0 0 5
560 0 0 1000000000 0 0 5
561 0 0 1000000000 0 5 0
562 0 0 1000000000 0 0 10
563 0 0 1000000000 0 0 6
564 0 0 1000000000 0 0 10
565 0 0 1000000000 0 0 8
566 0 0 1000000000 0 0 6
567 0 0 1000000000 0 0 5
568 0 0 1000000000 0 0 9
569 0 0 1000000000 0 0 10
570 0 0 1000000000 0 0 6
571 0 0 1000000000 0 6 0
572 0 0 1000000000 0 0 5
573 0 0 1000000000 0 0 6
574 0 0 1000000000 0 0 6
575 0 0 1000000000 0 0 6
576 0 0 1000000000 0 0 9
577 0 0 1000000000 0 0 5
578 0 0 1000000000 0 0 9
579 0 0 1000000000 0 0 10
580 0 0 1000000000 0 0 9
581 0 0 1000000000 0 5 0
582 0 0 1000000000 0 0 5
583 0 0 1000000000 0 0 5
584 0 0 1000000000 0 0 7
585 0 0 1000000000 0 0 5
586 0 0 1000000000 0 0 8
587 0 0 1000000000 0 0 8
588 0 0 1000000000 0 0 5
589 0 0 1000000000 0 0 8
590 0 0 1000000000 0 0 7
591 0 0 1000000000 0 7 0
592 0 0 1000000000 0 0 8
593 0 0 1000000000 0 0 9
594 0 0 1000000000 0 0 7
595 0 0 1000000000 0 0 7
596 0 0 1000000000 0 0 8
597 0 0 1000000000 0 0 9
598 0 0 1000000000 0 0 9
599 0 0 1000000000 0 0 6
600 0 0 1000000000 0 0 5
601 0 0 1000000000 0 6 0
602 0 0 1000000000 0 0 7
603 0 0 1000000000 0 0 6
604 0 0 1000000000 0 0 5
605 0 0 1000000000 0 0 5
606 0 0 1000000000 0 0 7
607 0 0 1000000000 0 0 7
608 0 0 1000000000 0 0 6
609 0 0 1000000000 0 0 5
610 0 0 1000000000 0 0 8
611 0 0 1000000000 0 6 0
612 0 0 1000000000 0 0 5
613 0 0 1000000000 0 0 10
614 0 0 1000000000 0 0 6
615 0 0 1000000000 0 0 5
616 0 0 1000000000 0 0 7
617 0 0 1000000000 0 0 9
618 0 0 1000000000 0 0 10
619 0 0 1000000000 0 0 5
620 0 0 1000000000 0 0 10
621 0 0 1000000000 0 8 0
622 0 0 1000000000 0 0 5
623 0 0 1000000000 0 0 10
624 0 0 1000000000 0 0 7
625 0 0 1000000000 0 0 6
626 0 0 1000000000 0 0 8
627 0 0 1000000000 0 0 8
628 0 0 1000000000 0 0 7
629 0 0 1000000000 0 0 7
630 0 0 1000000000 0 0 10
631 0 0 1000000000 0 10 0
632 0 0 1000000000 0 0 10
633 0 0 1000000000 0 0 10
634 0 0 1000000000 0 0 9
635 0 0 1000000000 0 0 6
636 0 0 1000000000 0 0 9
637 0 0 1000000000 0 0 5
638 0 0 1000000000 0 0 7
639 0 0 1000000000 0 0 5
640 0 0 1000000000 0 0 6
641 0 0 1000000000 0 5 0
642 0 0 1000000000 0 0 6
643 0 0 1000000000 0 0 7
644 0 0 1000000000 0 0 9
645 0 0 1000000000 0 0 9
646 0 0 1000000000 0 0 6
647 0 0 1000000000 0 0 10
648 0 0 1000000000 0 0 10
649 0 0 1000000000 0 0 8
650 0 0 1000000000 0 0 9
651 0 0 1000000000 0 10 0
652 0 0 1000000000 0 0 10
653 0 0 1000000000 0 0 10
654 0 0 1000000000 0 0 6
655 0 0 1000000000 0 0 8
656 0 0 1000000000 0 0 7
657 0 0 1000000000 0 0 7
658 0 0 1000000000 0 0 7
659 0 0 1000000000 0 0 8
660 0 0 1000000000 0 0 9
661 0 0 1000000000 0 10 0
662 0 0 1000000000 0 0 5
663 0 0 1000000000 0 0 9
664 0 0 1000000000 0 0 9
665 0 0 1000000000 0 0 8
666 0 0 1000000000 0 0 6
667 0 0 1000000000 0 0 10
668 0 0 1000000000 0 0 7
669 0 0 1000000000 0 0 7
670 0 0 1000000000 0 0 6
671 0 0 1000000000 0 10 0
672 0 0 1000000000 0 0 6
673 0 0 1000000000 0 0 5
674 0 0 1000000000 0 0 9
675 0 0 1000000000 0 0 8
676 0 0 1000000000 0 0 5
677 0 0 1000000000 0 0 10
678 0 0 1000000000 0 0 7
679 0 0 1000000000 0 0 5
680 0 0 1000000000 0 0 10
681 0 0 1000000000 0 6 0
682 0 0 1000000000 0 0 7
683 0 0 1000000000 0 0 10
684 0 0 1000000000 0 0 9
685 0 0 1000000000 0 0 9
686 0 0 1000000000 0 0 5
687 0 0 1000000000 0 0 5
688 0 0 1000000000 0 0 8
689 0 0 1000000000 0 0 8
690 0 0 1000000000 0 0 6
691 0 0 1000000000 0 7 0
692 0 0 1000000000 0 0 9
693 0 0 1000000000 0 0 6
694 0 0 1000000000 0 0 9
695 0 0 1000000000 0 0 5
696 0 0 1000000000 0 0 7
697 0 0 1000000000 0 0 5
698 0 0 1000000000 0 0 10
699 0 0 1000000000 0 0 6
700 0 0 1000000000 0 0 6
701 0 0 1000000000 0 7 0
702 0 0 1000000000 0 0 9
703 0 0 1000000000 0 0 5
704 0 0 1000000000 0 0 5
705 0 0 1000000000 0 0 7
706 0 0 1000000000 0 0 5
707 0 0 1000000000 0 0 7
708 0 0 1000000000 0 0 6
709 0 0 1000000000 0 0 7
710 0 0 1000000000 0 0 8
711 0 0 1000000000 0 10 0
712 0 0 1000000000 0 0 5
713 0 0 1000000000 0 0 8
714 0 0 1000000000 0 0 9
715 0 0 1000000000 0 0 5
716 0 0 1000000000 0 0 6
717 0 0 1000000000 0 0 5
718 0 0 1000000000 0 0 7
719 0 0 1000000000 0 0 8
720 0 0 1000000000 0 0 8
721 0 0 1000000000 0 8 0
722 0 0 1000000000 0 0 9
723 0 0 1000000000 0 0 5
724 0 0 1000000000 0 0 10
725 0 0 1000000000 0 0 9
726 0 0 1000000000 0 0 8
727 0 0 1000000000 0 0 6
728 0 0 1000000000 0 0 8
729 0 0 1000000000 0 0 9
730 0 0 1000000000 0 0 10
731 0 0 1000000000 0 5 0
732 0 0 1000000000 0 0 9
733 0 0 1000000000 0 0 5
734 0 0 1000000000 0 0 7
735 0 0 1000000000 0 0 6
736 0 0 1000000000 0 0 9
737 0 0 1000000000 0 0 10
738 0 0 1000000000 0 0 5
739 0 0 1000000000 0 0 5
740 0 0 1000000000 0 0 9
741 0 0 1000000000 0 9 0
742 0 0 1000000000 0 0 5
743 0 0 1000000000 0 0 9
744 0 0 1000000000 0 0 7
745 0 0 1000000000 0 0 10
746 0 0 1000000000 0 0 9
747 0 0 1000000000 0 0 6
748 0 0 1000000000 0 0 10
749 0 0 1000000000 0 0 6
750 0 0 1000000000 0 0 8
751 0 0 1000000000 0 9 0
752 0 0 1000000000 0 0 5
753 0 0 1000000000 0 0 10
754 0 0 1000000000 0 0 6
755 0 0 1000000000 0 0 6
756 0 0 1000000000 0 0 8
757 0 0 1000000000 0 0 7
758 0 0 1000000000 0 0 5
759 0 0 1000000000 0 0 9
760 0 0 1000000000 0 0 7
761 0 0 1000000000 0 7 0
762 0 0 1000000000 0 0 5
763 0 0 1000000000 0 0 7
764 0 0 1000000000 0 0 10
765 0 0 1000000000 0 0 8
766 0 0 1000000000 0 0 9
767 0 0 1000000000 0 0 8
768 0 0 1000000000 0 0 10
769 0 0 1000000000 0 0 6
770 0 0 1000000000 0 0 5
771 0 0 1000000000 0 6 0
772 0 0 1000000000 0 0 8
773 0 0 1000000000 0 0 9
774 0 0 1000000000 0 0 7
775 0 0 1000000000 0 0 5
776 0 0 1000000000 0 0 8
777 0 0 1000000000 0 0 5
778 0 0 1000000000 0 0 8
779 0 0 1000000000 0 0 6
780 0 0 1000000000 0 0 5
781 0 0 1000000000 0 7 0
782 0 0 1000000000 0 0 6
783 0 0 1000000000 0 0 10
784 0 0 1000000000 0 0 10
785 0 0 1000000000 0 0 8
786 0 0 1000000000 0 0 8
787 0 0 1000000000 0 0 5
788 0 0 1000000000 0 0 9
789 0 0 1000000000 0 0 6
790 0 0 1000000000 0 0 9
791 0 0 1000000000 0 9 0
792 0 0 1000000000 0 0 6
793 0 0 1000000000 0 0 10
794 0 0 1000000000 0 0 7
795 0 0 1000000000 0 0 6
796 0 0 1000000000 0 0 5
797 0 0 1000000000 0 0 6
798 0 0 1000000000 0 0 6
799 0 0 1000000000 0 0 7
800 0 0 1000000000 0 0 6
801 0 0 1000000000 0 10 0
802 0 0 1000000000 0 0 5
803 0 0 1000000000 0 0 9
804 0 0 1000000000 0 0 7
805 0 0 1000000000 0 0 9
806 0 0 1000000000 0 0 6
807 0 0 1000000000 0 0 7
808 0 0 1000000000 0 0 6
809 0 0 1000000000 0 0 10
810 0 0 1000000000 0 0 5
811 0 0 1000000000 0 6 0
812 0 0 1000000000 0 0 5
813 0 0 1000000000 0 0 9
814 0 0 1000000000 0 0 9
815 0 0 1000000000 0 0 6
816 0 0 1000000000 0 0 5
817 0 0 1000000000 0 0 10
818 0 0 1000000000 0 0 9
819 0 0 1000000000 0 0 7
820 0 0 1000000000 0 0 9
821 0 0 1000000000 0 9 0
822 0 0 1000000000 0 0 6
823 0 0 1000000000 0 0 5
824 0 0 1000000000 0 0 5
825 0 0 1000000000 0 0 8
826 0 0 1000000000 0 0 6
827 0 0 1000000000 0 0 6
828 0 0 1000000000 0 0 9
829 0 0 1000000000 0 0 10
830 0 0 1000000000 0 0 8
831 0 0 1000000000 0 8 0
832 0 0 1000000000 0 0 9
833 0 0 1000000000 0 0 9
834 0 0 1000000000 0 0 10
835 0 0 1000000000 0 0 10
836 0 0 1000000000 0 0 5
837 0 0 1000000000 0 0 9
838 0 0 1000000000 0 0 6
839 0 0 1000000000 0 0 10
840 0 0 1000000000 0 0 6
841 0 0 1000000000 0 9 0
842 0 0 1000000000 0 0 8
843 0 0 1000000000 0 0 10
844 0 0 1000000000 0 0 10
845 0 0 1000000000 0 0 5
846 0 0 1000000000 0 0 9
847 0 0 1000000000 0 0 8
848 0 0 1000000000 0 0 5
849 0 0 1000000000 0 0 8
850 0 0 1000000000 0 0 5
851 0 0 1000000000 0 10 0
852 0 0 1000000000 0 0 5
853 0 0 1000000000 0 0 10
854 0 0 1000000000 0 0 10
855 0 0 1000000000 0 0 9
856 0 0 1000000000 0 0 9
857 0 0 1000000000 0 0 6
858 0 0 1000000000 0 0 7
859 0 0 1000000000 0 0 8
860 0 0 1000000000 0 0 10
861 0 0 1000000000 0 10 0
862 0 0 1000000000 0 0 5
863 0 0 1000000000 0 0 5
864 0 0 1000000000 0 0 5
865 0 0 1000000000 0 0 7
866 0 0 1000000000 0 0 10
867 0 0 1000000000 0 0 6
868 0 0 1000000000 0 0 6
869 0 0 1000000000 0 0 5
870 0 0 1000000000 0 0 8
871 0 0 1000000000 0 6 0
872 0 0 1000000000 0 0 7
873 0 0 1000000000 0 0 7
874 0 0 1000000000 0 0 10
875 0 0 1000000000 0 0 6
876 0 0 1000000000 0 0 5
877 0 0 1000000000 0 0 5
878 0 0 1000000000 0 0 10
879 0 0 1000000000 0 0 10
880 0 0 1000000000 0 0 9
881 0 0 1000000000 0 8 0
882 0 0 1000000000 0 0 6
883 0 0 1000000000 0 0 9
884 0 0 1000000000 0 0 9
885 0 0 1000000000 0 0 10
886 0 0 1000000000 0 0 7
887 0 0 1000000000 0 0 7
888 0 0 1000000000 0 0 5
889 0 0 1000000000 0 0 8
890 0 0 1000000000 0 0 10
891 0 0 1000000000 0 10 0
892 0 0 1000000000 0 0 5
893 0 0 1000000000 0 0 7
894 0 0 1000000000 0 0 7
895 0 0 1000000000 0 0 7
896 0 0 1000000000 0 0 10
897 0 0 1000000000 0 0 7
898 0 0 1000000000 0 0 9
899 0 0 1000000000 0 0 9
900 0 0 1000000000 0 0 10
901 0 0 1000000000 0 9 0
902 0 0 1000000000 0 0 10
903 0 0 1000000000 0 0 8
904 0 0 1000000000 0 0 8
905 0 0 1000000000 0 0 7
906 0 0 1000000000 0 0 5
907 0 0 1000000000 0 0 5
908 0 0 1000000000 0 0 10
909 0 0 1000000000 0 0 8
910 0 0 1000000000 0 0 8
911 0 0 1000000000 0 10 0
912 0 0 1000000000 0 0 5
913 0 0 1000000000 0 0 5
914 0 0 1000000000 0 0 8
915 0 0 1000000000 0 0 9
916 0 0 1000000000 0 0 6
